JulietBench/Juliet_Based_Patch_Bench/linux/CWE-189-Numeric-Errors/CVE_2012_2100_d50f2ab6f050311dbf7b8f5501b25f0bf64a439b/Resultext4_fill_flex_info_SnippetEQ.smt2
; benchmark generated from python API
(set-info :status unknown)
(declare-fun R () (_ BitVec 32))
(declare-fun rdi () (_ BitVec 64))
(assert
 (let (($x198 (= (_ bv1 32) R)))
 (let ((?x6 ((_ extract 31 0) rdi)))
 (let (($x12 (bvsge (_ bv0 32) ?x6)))
 (let (($x201 (and $x12 $x198)))
 (let ((?x27 ((_ extract 4 0) rdi)))
 (let ((?x39 (concat (_ bv0 59) ?x27)))
 (let ((?x40 (bvshl (_ bv1 64) ?x39)))
 (let ((?x41 ((_ extract 31 0) ?x40)))
 (let (($x224 (= R ?x41)))
 (let (($x15 (bvslt (_ bv0 32) ?x6)))
 (let (($x246 (bvsge (_ bv31 32) ?x6)))
 (let (($x59 (and $x246 $x15 $x224)))
 (let (($x143 (bvslt (_ bv31 32) ?x6)))
 (let (($x248 (and $x143 $x15 $x198)))
 (let (($x87 (or $x248 $x59 $x201)))
 (let (($x31 (bvsge (_ bv1 32) ?x41)))
 (let (($x169 (and $x31 $x198)))
 (let (($x48 (bvslt (_ bv1 32) ?x41)))
 (let (($x115 (and $x48 $x224)))
 (let (($x253 (or $x115 $x169)))
 (and $x253 $x87))))))))))))))))))))))
(check-sat)
